10
0 65 58 18 79 57 32 40 54 35
65 0 70 32 18 77 79 61 31 39
58 70 0 61 45 99 42 19 73 72
18 32 61 0 63 65 22 50 34 57
79 18 45 63 0 33 47 50 49 38
57 77 99 65 33 0 63 86 34 52
32 79 42 22 47 63 0 35 42 39
40 61 19 50 50 86 35 0 31 81
54 31 73 34 49 34 42 31 0 18
35 39 72 57 38 52 39 81 18 0
